TCS_Benchmarks/redos_fix/regexlib1_output_distinct_1564_1563_72_0.smt2
(set-logic QF_S)
(declare-const x String)
(assert (str.in.re x (re.inter  (re.++  (re.*  (re.union  (str.to.re "\u{40}") (re.union  (str.to.re "\u{5d}") (re.union  (str.to.re "\u{5e}") (re.union (re.range "\u{30}" "\u{39}") (re.union (re.range "\u{41}" "\u{5a}") (re.union (re.range "\u{61}" "\u{7a}") (re.union  (str.to.re "\u{2d}") (re.union  (str.to.re "\u{2e}") (re.union  (str.to.re "\u{2f}") (re.union  (str.to.re "\u{5f}") (re.union  (str.to.re "\u{7b}") (re.union  (str.to.re "\u{21}") (re.union  (str.to.re "\u{23}") (re.union  (str.to.re "\u{24}") (re.union  (str.to.re "\u{25}") (re.union  (str.to.re "\u{26}") (re.union  (str.to.re "\u{28}") (re.union  (str.to.re "\u{29}") (re.union  (str.to.re "\u{2a}") (re.union  (str.to.re "\u{2b}") (re.union  (str.to.re "\u{3a}") (re.union  (str.to.re "\u{3b}") (re.union  (str.to.re "\u{3c}") (re.union  (str.to.re "\u{7c}") (re.union  (str.to.re "\u{3d}") (re.union  (str.to.re "\u{7d}") (re.union  (str.to.re "\u{3e}") (re.union  (str.to.re "\u{5b}")  (str.to.re "\u{3f}"))))))))))))))))))))))))))))) ) (re.*  (re.*  (re.union  (str.to.re "\u{40}") (re.union  (str.to.re "\u{5d}") (re.union  (str.to.re "\u{5e}") (re.union (re.range "\u{30}" "\u{39}") (re.union (re.range "\u{41}" "\u{5a}") (re.union (re.range "\u{61}" "\u{7a}") (re.union  (str.to.re "\u{2d}") (re.union  (str.to.re "\u{2e}") (re.union  (str.to.re "\u{2f}") (re.union  (str.to.re "\u{5f}") (re.union  (str.to.re "\u{7b}") (re.union  (str.to.re "\u{21}") (re.union  (str.to.re "\u{23}") (re.union  (str.to.re "\u{24}") (re.union  (str.to.re "\u{25}") (re.union  (str.to.re "\u{26}") (re.union  (str.to.re "\u{28}") (re.union  (str.to.re "\u{29}") (re.union  (str.to.re "\u{2a}") (re.union  (str.to.re "\u{2b}") (re.union  (str.to.re "\u{3a}") (re.union  (str.to.re "\u{3b}") (re.union  (str.to.re "\u{3c}") (re.union  (str.to.re "\u{7c}") (re.union  (str.to.re "\u{3d}") (re.union  (str.to.re "\u{7d}") (re.union  (str.to.re "\u{3e}") (re.union  (str.to.re "\u{5b}")  (str.to.re "\u{3f}"))))))))))))))))))))))))))))) ) ))  (re.++  (re.+ (re.union (re.range "\u{00}" "\u{2f}") (re.range "\u{3a}" "\u{40}") (re.range "\u{5b}" "\u{5e}") (re.range "\u{60}" "\u{60}") (re.range "\u{7b}" "\u{a9}") (re.range "\u{ab}" "\u{b4}") (re.range "\u{b6}" "\u{b9}") (re.range "\u{bb}" "\u{bf}") (re.range "\u{d7}" "\u{d7}") (re.range "\u{f7}" "\u{f7}")) ) (re.*  (re.+ (re.union (re.range "\u{00}" "\u{2f}") (re.range "\u{3a}" "\u{40}") (re.range "\u{5b}" "\u{5e}") (re.range "\u{60}" "\u{60}") (re.range "\u{7b}" "\u{a9}") (re.range "\u{ab}" "\u{b4}") (re.range "\u{b6}" "\u{b9}") (re.range "\u{bb}" "\u{bf}") (re.range "\u{d7}" "\u{d7}") (re.range "\u{f7}" "\u{f7}")) ) )) )))
(check-sat)
(get-model)