TCS_Benchmarks/redos_fix/regexlib1_output_distinct_1564_1563_72_0.txt
([@\]\^\dA-Za-z\-\.\/_\{!#$%&()*+:;<|=}>\[?]*){1,}
(\W+){1,}